65
3 0 4
3 1 12
3 2 2
4 3 2
5 0 11
5 1 10
6 0 6
6 2 8
6 3 8
7 0 5
7 1 10
7 6 2
8 1 1
8 2 6
8 3 11
9 0 7
9 2 9
9 5 5
9 7 10
10 0 8
10 2 12
10 3 7
10 4 6
10 5 12
10 6 10
10 8 10
10 9 2
11 0 12
11 3 6
11 5 2
11 7 10
11 10 3
12 2 5
12 6 4
12 8 1
12 9 1
12 10 6
12 11 3
13 1 2
13 3 4
13 4 9
13 5 12
13 6 7
13 7 7
13 8 1
13 12 11
14 1 5
14 2 12
14 5 9
14 7 4
14 8 6
14 10 8
14 12 2
15 0 7
15 1 4
15 2 12
15 3 12
15 7 8
15 8 9
15 10 9
15 14 9
16 0 9
16 1 7
16 4 10
16 5 6
16 6 3
16 8 7
16 9 6
16 11 5
16 13 5
17 0 2
17 3 11
17 5 7
17 8 11
17 9 3
17 10 12
17 11 11
17 14 5
17 16 3
18 0 11
18 1 2
18 2 11
18 5 5
18 8 7
18 9 4
18 13 5
18 14 6
19 2 4
19 3 8
19 9 1
19 12 5
19 14 8
20 1 7
20 2 7
20 7 6
20 9 5
20 11 9
20 13 9
20 14 12
20 17 10
20 18 6
21 0 4
21 2 3
21 4 6
21 5 1
21 7 12
21 8 12
21 11 10
21 12 2
21 13 10
21 15 5
22 1 4
22 5 1
22 11 11
22 12 10
22 15 3
22 16 2
22 17 4
22 18 5
22 19 1
22 20 5
22 21 4
23 1 1
23 3 9
23 4 11
23 5 3
23 6 10
23 7 8
23 15 6
23 19 5
23 21 10
23 22 5
24 4 4
24 5 2
24 7 7
24 8 4
24 10 11
24 13 5
24 17 11
24 18 3
24 19 3
24 20 9
24 22 7
25 0 7
25 2 6
25 4 2
25 7 4
25 9 8
25 11 4
25 12 5
25 17 6
25 22 9
25 23 5
26 0 4
26 1 4
26 3 1
26 4 3
26 8 8
26 9 10
26 12 9
26 13 6
26 14 1
26 18 1
26 20 5
26 21 6
26 24 3
26 25 8
27 0 5
27 1 6
27 2 5
27 3 5
27 7 8
27 8 2
27 9 10
27 10 6
27 18 5
27 19 2
27 20 11
27 21 1
27 22 8
27 25 9
27 26 10
28 0 5
28 1 3
28 3 10
28 4 9
28 5 6
28 11 6
28 12 2
28 16 7
28 17 6
28 18 12
28 21 9
28 22 5
28 24 11
28 25 12
28 26 7
28 27 9
29 0 1
29 1 6
29 2 12
29 3 9
29 5 4
29 7 9
29 19 1
29 22 10
29 28 8
30 0 6
30 3 8
30 4 5
30 5 4
30 7 5
30 8 3
30 9 4
30 10 9
30 11 8
30 12 9
30 13 8
30 14 8
30 17 3
30 18 8
30 19 8
30 24 9
30 28 12
31 0 2
31 3 6
31 9 12
31 10 4
31 11 6
31 12 6
31 13 4
31 14 1
31 15 4
31 16 7
31 17 7
31 24 9
31 25 11
31 28 1
31 29 11
32 0 11
32 2 1
32 6 6
32 7 9
32 11 7
32 14 3
32 15 7
32 16 6
32 21 10
32 22 9
32 24 8
32 29 2
32 30 5
32 31 6
33 0 11
33 3 6
33 5 5
33 6 5
33 9 4
33 10 7
33 11 10
33 12 5
33 13 9
33 18 7
33 19 6
33 21 5
33 23 12
33 25 7
33 27 4
33 28 7
33 30 6
33 31 2
33 32 12
34 1 5
34 2 5
34 3 9
34 6 9
34 7 10
34 8 3
34 11 8
34 13 4
34 14 11
34 17 9
34 19 1
34 28 9
34 31 9
34 33 8
35 0 6
35 2 6
35 5 1
35 6 3
35 7 5
35 11 9
35 12 12
35 13 2
35 14 5
35 17 7
35 18 6
35 19 1
35 21 2
35 22 5
35 23 6
35 27 7
35 30 7
35 32 12
36 0 12
36 1 3
36 2 6
36 3 7
36 6 3
36 8 10
36 11 9
36 12 12
36 15 2
36 16 7
36 19 6
36 21 2
36 23 2
36 24 8
36 25 7
36 26 4
36 34 9
37 0 3
37 1 4
37 3 5
37 4 12
37 9 7
37 10 10
37 11 11
37 12 4
37 14 7
37 16 2
37 17 1
37 19 10
37 21 11
37 22 8
37 23 12
37 24 3
37 26 11
37 28 6
37 30 11
37 31 4
37 34 5
38 0 2
38 1 6
38 2 10
38 4 10
38 8 3
38 9 2
38 12 6
38 13 3
38 14 3
38 22 1
38 24 10
38 29 2
38 30 1
38 31 6
38 33 8
38 35 3
38 36 2
39 6 5
39 7 9
39 11 9
39 12 2
39 17 7
39 19 8
39 22 5
39 23 7
39 24 5
39 25 11
39 26 7
39 31 10
39 35 8
39 36 7
39 38 9
40 3 6
40 9 8
40 10 7
40 13 6
40 17 7
40 19 11
40 20 6
40 21 11
40 24 9
40 26 6
40 27 9
40 28 2
40 29 11
40 32 10
40 33 6
40 34 7
40 35 1
40 37 6
40 39 3
41 1 12
41 2 5
41 3 6
41 4 8
41 5 12
41 6 4
41 10 9
41 11 10
41 13 1
41 14 9
41 16 3
41 20 2
41 21 2
41 23 11
41 26 6
41 30 5
41 31 3
41 32 2
41 34 2
41 35 8
41 38 2
41 39 1
41 40 7
42 4 10
42 6 7
42 7 10
42 9 11
42 13 10
42 14 9
42 16 4
42 18 11
42 20 5
42 22 7
42 23 6
42 25 10
42 33 2
42 37 8
42 39 9
42 40 10
42 41 4
43 1 1
43 8 9
43 10 1
43 11 12
43 13 11
43 14 5
43 17 12
43 18 8
43 20 5
43 23 11
43 25 7
43 26 5
43 27 8
43 28 7
43 35 2
43 36 11
43 37 4
43 41 1
43 42 3
44 2 5
44 3 8
44 4 2
44 8 12
44 16 1
44 17 6
44 19 6
44 20 9
44 22 8
44 26 8
44 27 11
44 28 1
44 31 5
44 33 5
44 35 4
44 37 3
44 39 2
44 40 10
44 43 10
45 2 11
45 3 2
45 6 9
45 8 5
45 10 2
45 12 8
45 14 9
45 16 8
45 17 9
45 20 5
45 21 9
45 22 7
45 24 5
45 28 9
45 30 2
45 33 4
45 35 2
45 39 2
45 40 8
45 41 10
45 43 12
46 0 11
46 2 3
46 3 4
46 8 11
46 9 4
46 10 3
46 11 9
46 12 4
46 13 11
46 14 6
46 15 1
46 16 6
46 17 1
46 18 6
46 21 1
46 22 10
46 23 4
46 24 6
46 27 11
46 29 8
46 31 9
46 32 6
46 33 4
46 35 1
46 38 8
46 40 12
46 41 6
46 44 12
46 45 4
47 0 7
47 3 1
47 8 1
47 9 5
47 11 9
47 13 3
47 14 1
47 15 7
47 19 8
47 21 5
47 22 12
47 24 8
47 25 4
47 27 10
47 31 10
47 32 11
47 33 2
47 34 1
47 38 9
47 39 11
47 40 10
47 41 1
47 43 1
48 0 6
48 1 1
48 5 3
48 6 5
48 8 10
48 9 12
48 10 5
48 11 12
48 12 5
48 14 2
48 17 12
48 19 3
48 21 10
48 22 4
48 23 8
48 25 3
48 26 1
48 27 3
48 30 10
48 31 5
48 32 12
48 33 1
48 34 6
48 35 7
48 38 3
48 39 10
48 40 9
48 41 6
48 43 4
48 44 4
48 46 6
48 47 4
49 0 8
49 3 7
49 5 12
49 8 11
49 9 12
49 10 5
49 13 12
49 15 4
49 16 11
49 18 10
49 19 5
49 20 9
49 21 5
49 23 5
49 28 4
49 30 1
49 31 10
49 32 9
49 33 1
49 34 10
49 35 8
49 42 9
49 44 9
49 45 3
50 1 5
50 2 3
50 3 6
50 4 7
50 7 5
50 9 9
50 10 9
50 12 7
50 15 6
50 17 4
50 19 8
50 23 6
50 27 6
50 29 4
50 32 3
50 35 6
50 36 8
50 37 10
50 39 2
50 42 1
50 43 7
50 46 8
50 47 7
51 0 2
51 2 3
51 4 7
51 8 7
51 12 3
51 13 2
51 14 11
51 16 10
51 17 12
51 19 8
51 21 6
51 22 7
51 23 1
51 24 5
51 25 11
51 32 6
51 33 8
51 34 11
51 36 12
51 38 6
51 42 3
51 45 2
51 46 1
51 47 7
52 1 9
52 2 2
52 3 5
52 5 5
52 7 9
52 8 12
52 13 12
52 18 11
52 19 2
52 21 5
52 22 10
52 25 6
52 28 10
52 29 12
52 32 6
52 33 9
52 36 4
52 37 10
52 39 6
52 40 5
52 41 8
52 42 4
52 44 5
52 45 2
52 47 7
52 48 12
52 49 7
53 2 5
53 3 4
53 6 4
53 8 9
53 9 10
53 10 11
53 12 3
53 17 6
53 21 6
53 22 5
53 24 12
53 25 2
53 26 4
53 27 6
53 28 7
53 29 5
53 32 10
53 33 12
53 34 8
53 36 4
53 38 2
53 40 3
53 44 1
53 46 6
53 47 4
53 48 5
53 49 3
54 2 6
54 6 9
54 10 7
54 14 10
54 15 10
54 16 5
54 17 1
54 20 9
54 21 2
54 23 4
54 24 11
54 28 6
54 29 8
54 34 8
54 39 12
54 41 4
54 44 9
54 46 7
54 48 1
54 49 9
54 50 4
54 51 2
54 52 11
55 0 7
55 3 12
55 6 3
55 7 3
55 9 9
55 12 7
55 20 1
55 21 3
55 22 5
55 23 11
55 25 3
55 27 3
55 36 11
55 40 2
55 42 7
55 43 7
55 44 2
55 45 5
55 46 11
55 47 8
55 49 9
55 54 6
56 1 5
56 2 9
56 4 1
56 5 4
56 8 2
56 10 7
56 11 5
56 12 7
56 13 3
56 18 10
56 22 5
56 27 7
56 28 12
56 29 4
56 31 2
56 34 9
56 37 6
56 38 9
56 40 3
56 41 3
56 42 5
56 43 4
56 44 3
56 45 6
56 46 3
56 47 5
56 48 10
56 51 9
56 52 10
56 54 11
56 55 7
57 0 8
57 3 4
57 4 5
57 5 2
57 7 2
57 11 1
57 12 9
57 13 7
57 17 1
57 22 2
57 24 5
57 29 6
57 30 12
57 33 6
57 34 7
57 36 1
57 40 4
57 41 9
57 42 6
57 43 2
57 45 3
57 47 10
57 51 9
57 52 5
57 55 9
57 56 7
58 0 4
58 1 1
58 5 9
58 6 3
58 12 2
58 14 4
58 19 12
58 20 1
58 23 4
58 24 6
58 25 2
58 26 9
58 27 3
58 31 7
58 33 12
58 35 9
58 38 6
58 39 3
58 40 7
58 41 11
58 44 12
58 46 9
58 47 2
58 49 3
58 51 6
58 53 10
58 54 5
58 55 1
58 56 6
58 57 4
59 0 8
59 1 4
59 3 1
59 4 5
59 7 4
59 8 12
59 9 2
59 10 9
59 13 10
59 14 5
59 16 12
59 17 11
59 21 11
59 22 3
59 24 2
59 28 4
59 29 10
59 30 3
59 31 8
59 35 9
59 36 10
59 37 9
59 41 1
59 42 11
59 44 12
59 46 12
59 48 9
59 49 9
59 51 2
59 56 1
59 57 12
60 0 12
60 1 11
60 2 7
60 3 3
60 5 7
60 6 10
60 8 4
60 9 3
60 10 2
60 11 1
60 13 7
60 14 7
60 16 6
60 17 11
60 18 11
60 19 7
60 20 7
60 25 11
60 26 8
60 27 12
60 31 2
60 32 4
60 34 5
60 35 3
60 36 10
60 37 8
60 39 12
60 41 12
60 45 2
60 46 11
60 47 6
60 49 12
60 50 10
60 52 8
60 53 11
60 56 12
60 58 2
60 59 12
61 1 9
61 2 5
61 3 10
61 5 11
61 6 11
61 8 5
61 9 1
61 10 8
61 11 10
61 12 3
61 15 1
61 16 6
61 17 1
61 19 4
61 22 11
61 27 10
61 29 6
61 33 7
61 34 11
61 38 6
61 39 4
61 40 3
61 41 5
61 42 9
61 43 12
61 44 5
61 45 10
61 46 6
61 48 12
61 49 12
61 50 7
61 51 9
61 52 9
61 53 4
61 54 9
61 56 1
61 57 1
61 58 8
61 59 4
62 0 11
62 4 7
62 8 12
62 11 8
62 12 1
62 14 3
62 16 5
62 17 12
62 20 3
62 22 12
62 23 9
62 26 1
62 28 1
62 31 5
62 32 12
62 33 8
62 34 3
62 35 8
62 37 7
62 43 2
62 47 12
62 48 8
62 50 6
62 52 9
62 54 2
62 57 10
62 61 5
63 0 9
63 1 5
63 2 9
63 4 8
63 5 6
63 6 1
63 8 12
63 9 2
63 12 9
63 14 4
63 17 6
63 21 3
63 22 10
63 23 1
63 26 7
63 27 2
63 28 8
63 29 5
63 30 11
63 31 8
63 35 6
63 37 8
63 38 10
63 39 3
63 43 12
63 44 12
63 46 12
63 47 5
63 49 2
63 51 5
63 52 5
63 53 8
63 54 3
63 56 2
63 58 4
63 62 3
64 2 5
64 3 8
64 4 6
64 5 10
64 6 1
64 8 8
64 13 8
64 14 7
64 15 3
64 16 1
64 18 4
64 19 4
64 20 2
64 23 3
64 29 1
64 33 4
64 34 7
64 35 6
64 36 10
64 37 8
64 41 5
64 44 11
64 45 10
64 48 7
64 49 2
64 50 11
64 51 12
64 52 7
64 53 11
64 55 9
64 56 4
64 58 11
